Traveling Salesman Problem/TSP_generados/Aleatorio1620390949_10.tsp
NAME: Aleatorio1620390949_10.tsp
COMMENT: Randomly generated scenario
TYPE: TSP
DIMENSION: 10
EDGE_WEIGHT_TYPE: ATT
NODE_COORD_SECTION
1 16.79 29.55
2 11.44 48.73
3 5.22 26.17
4 22.68 13.2
5 36.46 47.6
6 10.47 0.08
7 14.59 17.43
8 11.1 13.35
9 44.63 48.78
10 3.69 24.79
