Traveling Salesman Problem/TSP_generados/Aleatorio1620390949_10.opt.tour
NAME: Aleatorio1620390949_10.opt.tour
COMMENT: Optimal solution for Aleatorio1620390949_10 (158.86115806338086)
TYPE: TOUR
DIMENSION: 10
TOUR_SECTION
1 2 5 9 4 6 8 7 10 3
-1
EOF
